71
0 37 30 42 7 23 9 35 19 26 
6 31 39 59 27 15 33 56 10 54 
4 67 29 52 55 2 25 20 1 17 
63 60 36 5 43 47 3 70 66 28 
65 58 49 51 40 32 34 62 48 46 
38 13 50 57 24 22 11 64 44 61 
14 16 21 69 68 8 45 41 12 18 
53 
